<number of tasks>
29

<cycle time>
30

<task times>
1 7
2 19
3 15
4 5
5 12
6 10
7 8
8 16
9 2
10 6
11 21
12 10
13 9
14 4
15 14
16 7
17 14
18 17
19 10
20 16
21 1
22 9
23 25
24 14
25 14
26 2
27 10
28 7
29 20

<precedence relations>
1,3
1,25
2,6
2,26
3,4
4,5
5,8
5,13
6,8
7,9
7,12
7,25
8,11
8,16
9,10
10,14
10,15
11,17
12,15
13,17
14,16
15,19
16,18
17,20
18,22
19,21
20,23
21,22
22,23
23,24
23,28
24,29
25,29
26,27
27,29
28,29

<setup times forward>
1,10:1
1,12:1
1,19:1
1,25:1
2,5:1
2,10:1
2,12:1
2,13:1
2,19:1
2,25:1
3,10:1
3,12:1
3,19:1
3,25:1
4,5:1
4,10:1
4,12:1
4,19:1
4,25:1
5,2:1
5,6:1
5,7:1
5,8:1
5,9:1
5,14:1
5,15:1
5,21:1
5,26:1
5,27:1
6,5:1
6,10:1
6,12:1
6,13:1
6,19:1
6,25:1
7,5:1
7,11:1
7,12:1
7,13:1
7,17:1
7,25:1
8,10:1
8,11:1
8,12:1
8,13:1
8,19:1
8,25:1
9,5:1
9,10:1
9,11:1
9,12:1
9,13:1
9,17:1
9,25:1
10,1:1
10,2:1
10,3:1
10,4:1
10,6:1
10,8:1
10,14:1
10,15:1
10,20:1
10,26:1
10,27:1
11,7:1
11,9:1
11,14:1
11,15:1
11,16:1
11,18:1
11,21:1
11,22:1
11,26:1
11,27:1
12,1:1
12,2:1
12,3:1
12,4:1
12,6:1
12,8:1
12,9:1
12,14:1
12,15:1
12,16:1
12,18:1
12,20:1
12,26:1
12,27:1
13,2:1
13,6:1
13,7:1
13,8:1
13,9:1
13,14:1
13,15:1
13,16:1
13,18:1
13,21:1
13,22:1
13,26:1
13,27:1
14,5:1
14,11:1
14,12:1
14,13:1
14,17:1
14,19:1
14,25:1
15,5:1
15,11:1
15,13:1
15,17:1
15,19:1
15,25:1
16,11:1
16,12:1
16,13:1
16,17:1
16,19:1
16,25:1
17,7:1
17,9:1
17,14:1
17,15:1
17,16:1
17,18:1
17,20:1
17,21:1
17,22:1
17,26:1
17,27:1
18,11:1
18,12:1
18,13:1
18,17:1
18,19:1
18,25:1
19,1:1
19,2:1
19,3:1
19,4:1
19,6:1
19,8:1
19,14:1
19,16:1
19,18:1
19,20:1
19,21:1
19,26:1
19,27:1
20,10:1
20,12:1
20,19:1
20,23:1
20,25:1
21,5:1
21,11:1
21,13:1
21,17:1
21,25:1
22,11:1
22,13:1
22,17:1
22,23:1
22,25:1
23,26:1
23,27:1
23,28:1
24,26:1
24,27:1
24,28:1
24,29:1
25,2:1
25,3:1
25,4:1
25,6:1
25,8:1
25,9:1
25,14:1
25,15:1
25,16:1
25,18:1
25,20:1
25,21:1
25,22:1
25,26:1
25,27:1
25,28:1
25,29:1
26,5:1
26,10:1
26,11:1
26,12:1
26,13:1
26,17:1
26,19:1
26,23:1
26,24:1
26,25:1
27,5:1
27,10:1
27,11:1
27,12:1
27,13:1
27,17:1
27,19:1
27,23:1
27,24:1
27,25:1
28,24:1
28,25:1

<setup times backward>
1,10:1
1,12:1
1,19:1
2,5:1
2,10:1
2,12:1
2,13:1
2,19:1
2,25:1
3,10:1
3,12:1
3,19:1
3,25:1
4,10:1
4,12:1
4,19:1
4,25:1
6,5:1
6,10:1
6,12:1
6,13:1
6,19:1
6,25:1
7,5:1
7,11:1
7,13:1
7,17:1
8,5:1
8,10:1
8,12:1
8,13:1
8,19:1
8,25:1
9,5:1
9,11:1
9,12:1
9,13:1
9,17:1
9,25:1
14,5:1
14,10:1
14,11:1
14,12:1
14,13:1
14,17:1
14,19:1
14,25:1
15,5:1
15,10:1
15,11:1
15,12:1
15,13:1
15,17:1
15,25:1
16,5:1
16,10:1
16,11:1
16,12:1
16,13:1
16,17:1
16,19:1
16,25:1
18,5:1
18,10:1
18,11:1
18,12:1
18,13:1
18,17:1
18,19:1
18,25:1
20,5:1
20,10:1
20,11:1
20,12:1
20,13:1
20,17:1
20,19:1
20,25:1
21,5:1
21,10:1
21,11:1
21,12:1
21,13:1
21,17:1
21,19:1
21,25:1
22,5:1
22,10:1
22,11:1
22,12:1
22,13:1
22,17:1
22,19:1
22,25:1
26,5:1
26,10:1
26,11:1
26,12:1
26,13:1
26,17:1
26,19:1
26,23:1
26,24:1
26,25:1
27,5:1
27,10:1
27,11:1
27,12:1
27,13:1
27,17:1
27,19:1
27,23:1
27,24:1
27,25:1
28,5:1
28,10:1
28,11:1
28,12:1
28,13:1
28,17:1
28,19:1
28,23:1
28,24:1
28,25:1
29,5:1
29,10:1
29,11:1
29,12:1
29,13:1
29,17:1
29,19:1
29,23:1
29,24:1
29,25:1

<end>

<optimal SALBP-1 value>
12


<rand seed>
467321153

